c b=3,c=25
p cnf 11 27
3 -6 0
2 3 -9 0
1 3 -10 0
-3 6 0
2 -3 9 0
2 -3 10 0
2 -5 0
1 2 -8 0
2 -11 0
1 -2 3 9 0
3 -11 0
1 -2 -3 -9 0
-2 -3 11 0
-2 5 0
1 -2 8 0
1 -2 -10 0
1 -4 0
1 -7 0
-1 3 -9 0
2 3 -10 0
-1 -3 9 0
-1 2 8 0
-1 -2 3 10 0
-2 -3 -10 0
-1 -2 -8 0
-1 4 0
-1 7 0
